# Solution for model GasLib-40
# Objective value = 2.3432149816995480e+01
loadshed[innode_1] 0
loadshed[innode_2] 0
loadshed[innode_3] 0
loadshed[innode_4] 0
loadshed[innode_5] 0
loadshed[innode_6] 0
loadshed[innode_7] 0
loadshed[innode_8] 0
loadshed[source_1] -1.7645098802863268e-01
loadshed[source_2] -9.6078730404811630e-03
loadshed[source_3] 3.3427891701667811e-01
loadshed[sink_1] 0
loadshed[sink_2] 0
loadshed[sink_3] 0
loadshed[sink_4] 0
loadshed[sink_5] 0
loadshed[sink_6] 0
loadshed[sink_7] 0
loadshed[sink_8] 0
loadshed[sink_9] 0
loadshed[sink_10] 0
loadshed[sink_11] 0
loadshed[sink_12] 1
loadshed[sink_13] 0
loadshed[sink_14] 0
loadshed[sink_15] 0
loadshed[sink_16] 0
loadshed[sink_17] 0
loadshed[sink_18] 0
loadshed[sink_19] 0
loadshed[sink_20] 0
loadshed[sink_21] 4.3279387416023307e-01
loadshed[sink_22] 0
loadshed[sink_23] 0
loadshed[sink_24] 0
loadshed[sink_25] 0
loadshed[sink_26] 0
loadshed[sink_27] 0
loadshed[sink_28] 0
loadshed[sink_29] 0
flow[source_1,sink_3] 1.8598546348938766e+02
flow[innode_1,sink_16] 1.6354166666666970e+01
flow[innode_6,sink_13] 9.2351357353111023e+00
flow[sink_13,sink_14] -7.1190309313555655e+00
flow[sink_14,sink_10] -2.3473197598022125e+01
flow[sink_25,sink_26] 1.5795113672533284e+02
flow[sink_26,sink_9] 8.1770833333333655e+01
flow[sink_9,sink_18] 6.5416666666666671e+01
flow[sink_26,sink_4] 5.9826136725332518e+01
flow[sink_4,sink_20] -4.7575046791007026e+01
flow[sink_18,sink_6] 4.9062500000000313e+01
flow[sink_25,innode_8] -1.5327713015605130e+02
flow[sink_6,sink_7] 0
flow[sink_6,sink_22] 3.2708333333333641e+01
flow[sink_7,sink_24] 2.5630350183004524e+01
flow[sink_22,sink_1] 1.6354166666666970e+01
flow[sink_24,sink_21] 9.2761835163378557e+00
flow[sink_21,sink_12] 0
flow[sink_7,sink_5] -4.1984516849671188e+01
flow[sink_5,sink_17] -5.8338683516337852e+01
flow[sink_17,sink_4] -9.1047016849672858e+01
flow[sink_17,sink_8] 1.6354166666668334e+01
flow[sink_3,sink_23] 16.3541666666697
flow[sink_8,sink_20] 0
flow[sink_25,sink_20] 6.3929213457673626e+01
flow[sink_25,sink_15] -9.4192522428933160e+01
flow[sink_15,sink_29] -6.1759876405808434e+01
flow[sink_29,sink_28] 1.6354166666667879e+01
flow[sink_29,sink_2] 6.5140979356458075e+01
flow[sink_2,sink_15] 4.8786812689791404e+01
flow[sink_29,innode_7] -1.5960918909560107e+02
flow[innode_4,sink_19] 40.217908077425
flow[sink_19,innode_3] 0
flow[innode_4,innode_5] 65.0261228539314
flow[sink_27,innode_5] -65.0261228539314
flow[sink_27,sink_19] 4.8671956187264726e+01
flow[sink_10,sink_11] 3.2708333333333641e+01
flow[sink_10,innode_2] -7.2535697598022722e+01
flow[sink_10,innode_3] 0
flow[innode_6,sink_25] -9.2351357353111023e+00
flow[sink_11,innode_1] 1.6354166666666970e+01
flow[sink_19,innode_2] 7.2535697598022722e+01
flow[source_3,innode_4] 1.0524403093135641e+02
flow[source_2,innode_7] 1.5960918909560107e+02
flow[sink_3,innode_8] 1.5327713015605130e+02
pressure[innode_1] 7.5398407560067866e+01
pressure[innode_2] 7.9383920067969669e+01
pressure[innode_3] 7.5550108867671412e+01
pressure[innode_4] 81.01325
pressure[innode_5] 8.0968521603862982e+01
pressure[innode_6] 7.4478031228796667e+01
pressure[innode_7] 81.01325
pressure[innode_8] 8.0391571644577269e+01
pressure[source_1] 81.01325
pressure[source_2] 81.01325
pressure[source_3] 81.01325
pressure[sink_1] 5.2681267595233010e+01
pressure[sink_2] 7.5094234936819333e+01
pressure[sink_3] 8.0391571644577269e+01
pressure[sink_4] 5.5747175568577212e+01
pressure[sink_5] 4.7921848564989595e+01
pressure[sink_6] 5.4782345205620388e+01
pressure[sink_7] 3.0460816326618076e+01
pressure[sink_8] 51.650573607427
pressure[sink_9] 5.8459430009078673e+01
pressure[sink_10] 7.5550108867671412e+01
pressure[sink_11] 7.5398407560067866e+01
pressure[sink_12] 1.0132500000000002e+00
pressure[sink_13] 7.4427119468822454e+01
pressure[sink_14] 7.4439859581081464e+01
pressure[sink_15] 7.4934956745827492e+01
pressure[sink_16] 7.4376757725250187e+01
pressure[sink_17] 5.2267658802840621e+01
pressure[sink_18] 5.6092460033880016e+01
pressure[sink_19] 7.9383920067969669e+01
pressure[sink_20] 5.9237502213059912e+01
pressure[sink_21] 1.0132500000000002e+00
pressure[sink_22] 5.3745036737588023e+01
pressure[sink_23] 8.0226853632917482e+01
pressure[sink_24] 1.1159751138410805e+00
pressure[sink_25] 7.4478031228796667e+01
pressure[sink_26] 6.3353625428790025e+01
pressure[sink_27] 80.4289249395308
pressure[sink_28] 76.4490471863554
pressure[sink_29] 7.6744329459972590e+01
interdiction[source_1,sink_3] 0
interdiction[innode_1,sink_16] 0
interdiction[innode_6,sink_13] 0
interdiction[sink_13,sink_14] 0
interdiction[sink_14,sink_10] 0
interdiction[sink_25,sink_26] 0
interdiction[sink_26,sink_9] 0
interdiction[sink_9,sink_18] 0
interdiction[sink_26,sink_4] 0
interdiction[sink_4,sink_20] 0
interdiction[sink_18,sink_6] 0
interdiction[sink_25,innode_8] 0
interdiction[sink_6,sink_7] 1
interdiction[sink_6,sink_22] 0
interdiction[sink_7,sink_24] 0
interdiction[sink_22,sink_1] 0
interdiction[sink_24,sink_21] 0
interdiction[sink_21,sink_12] 0
interdiction[sink_7,sink_5] 0
interdiction[sink_5,sink_17] 0
interdiction[sink_17,sink_4] 0
interdiction[sink_17,sink_8] 0
interdiction[sink_3,sink_23] 0
interdiction[sink_8,sink_20] 1
interdiction[sink_25,sink_20] 0
interdiction[sink_25,sink_15] 0
interdiction[sink_15,sink_29] 0
interdiction[sink_29,sink_28] 0
interdiction[sink_29,sink_2] 0
interdiction[sink_2,sink_15] 0
interdiction[sink_29,innode_7] 0
interdiction[innode_4,sink_19] 0
interdiction[sink_19,innode_3] 1
interdiction[innode_4,innode_5] 0
interdiction[sink_27,innode_5] 0
interdiction[sink_27,sink_19] 0
interdiction[sink_10,sink_11] 0
interdiction[sink_10,innode_2] 0
interdiction[sink_10,innode_3] 0
interdiction[innode_6,sink_25] 0
interdiction[sink_11,innode_1] 0
interdiction[sink_19,innode_2] 0
interdiction[source_3,innode_4] 0
interdiction[source_2,innode_7] 0
interdiction[sink_3,innode_8] 0
WCcheckFlow[source_1,sink_3] 39
WCcheckFlow[innode_1,sink_16] 1
WCcheckFlow[innode_6,sink_13] 13
WCcheckFlow[sink_13,sink_14] 12
WCcheckFlow[sink_14,sink_10] 11
WCcheckFlow[sink_25,sink_26] 15
WCcheckFlow[sink_26,sink_9] 5
WCcheckFlow[sink_9,sink_18] 4
WCcheckFlow[sink_26,sink_4] 9
WCcheckFlow[sink_4,sink_20] 1
WCcheckFlow[sink_18,sink_6] 3
WCcheckFlow[sink_25,innode_8] -36
WCcheckFlow[sink_6,sink_7] 0
WCcheckFlow[sink_6,sink_22] 2
WCcheckFlow[sink_7,sink_24] 3
WCcheckFlow[sink_22,sink_1] 1
WCcheckFlow[sink_24,sink_21] 2
WCcheckFlow[sink_21,sink_12] 1
WCcheckFlow[sink_7,sink_5] -4
WCcheckFlow[sink_5,sink_17] -5
WCcheckFlow[sink_17,sink_4] -7
WCcheckFlow[sink_17,sink_8] 1
WCcheckFlow[sink_3,sink_23] 1
WCcheckFlow[sink_8,sink_20] 0
WCcheckFlow[sink_25,sink_20] 0
WCcheckFlow[sink_25,sink_15] 6
WCcheckFlow[sink_15,sink_29] 5
WCcheckFlow[sink_29,sink_28] 1
WCcheckFlow[sink_29,sink_2] 1
WCcheckFlow[sink_2,sink_15] 0
WCcheckFlow[sink_29,innode_7] 2
WCcheckFlow[innode_4,sink_19] -4
WCcheckFlow[sink_19,innode_3] 0
WCcheckFlow[innode_4,innode_5] 2
WCcheckFlow[sink_27,innode_5] -1
WCcheckFlow[sink_27,sink_19] 0
WCcheckFlow[sink_10,sink_11] 3
WCcheckFlow[sink_10,innode_2] 6
WCcheckFlow[sink_10,innode_3] 1
WCcheckFlow[innode_6,sink_25] -14
WCcheckFlow[sink_11,innode_1] 2
WCcheckFlow[sink_19,innode_2] -5
WCcheckFlow[source_3,innode_4] -1
WCcheckFlow[source_2,innode_7] -1
WCcheckFlow[sink_3,innode_8] 37
